74
0 45 47 40 52 49 16 73 10 67 
43 54 26 12 58 14 37 60 22 33 
6 35 71 18 7 55 21 42 31 29 
39 8 13 4 32 69 15 68 38 66 
1 64 30 70 41 5 53 44 50 3 
23 28 61 59 11 51 63 27 65 72 
24 34 46 9 17 56 20 36 19 48 
57 62 25 2 
